WARNING: for repeatability, setting FPU to use double precision
============================[ Problem Statistics ]=============================
|                                                                             |
|  Number of variables:          8399                                         |
|  Number of clauses:           69692                                         |
|  Parse time:                   0.03 s                                       |
|  Eliminated clauses:           0.01 Mb                                      |
|  Simplification time:          0.03 s                                       |
|                                                                             |
============================[ Search Statistics ]==============================
| Conflicts |          ORIGINAL         |          LEARNT          | Progress |
|           |    Vars  Clauses Literals |    Limit  Clauses Lit/Cl |          |
===============================================================================
|       100 |    1028     8994    24212 |     3297      100     13 | 80.748 % |
===============================================================================
restarts              : 3
conflicts             : 246            (3766 /sec)
decisions             : 1161           (0.00 % random) (17775 /sec)
propagations          : 18103          (277156 /sec)
conflict literals     : 3653           (4.85 % deleted)
Memory used           : 26.00 MB
CPU time              : 0.065317 s

SATISFIABLE
WARNING: for repeatability, setting FPU to use double precision
============================[ Problem Statistics ]=============================
|                                                                             |
|  Number of variables:          8399                                         |
|  Number of clauses:           69692                                         |
|  Parse time:                   0.02 s                                       |
|  Eliminated clauses:           0.01 Mb                                      |
|  Simplification time:          0.02 s                                       |
|                                                                             |
============================[ Search Statistics ]==============================
| Conflicts |          ORIGINAL         |          LEARNT          | Progress |
|           |    Vars  Clauses Literals |    Limit  Clauses Lit/Cl |          |
===============================================================================
|       100 |    1028     8994    24212 |     3297      100     13 | 80.748 % |
===============================================================================
restarts              : 3
conflicts             : 246            (5508 /sec)
decisions             : 1161           (0.00 % random) (25996 /sec)
propagations          : 18103          (405352 /sec)
conflict literals     : 3653           (4.85 % deleted)
Memory used           : 26.00 MB
CPU time              : 0.04466 s

SATISFIABLE
